<instance format="XCSP3" type="CSP">
  <variables>
    <var id="x0"> 0 9 11 14 17 </var>
    <var id="x1"> 5 6 9 17 </var>
    <var id="x2"> 11 14 17 </var>
    <var id="x3"> 0 6 9 </var>
    <var id="x4"> 0 11 </var>
    <var id="x5"> 5 11 14 17 </var>
    <var id="x6"> 0 6 </var>
    <var id="x7"> 7 9 11 17 </var>
    <var id="x8"> 4 9 11 12 17 </var>
    <var id="x9"> 4 7 9 17 </var>
    <var id="x10"> 7 9 13 </var>
    <var id="x11"> 11 16 17 </var>
    <var id="x12"> 11 12 17 </var>
    <var id="x13"> 11 12 17 </var>
    <var id="x14"> 11 13 17 </var>
    <var id="x15"> 0 1 7 11 </var>
    <var id="x16"> 2 3 10 </var>
    <var id="x17"> 0 7 </var>
    <var id="x18"> 2 7 10 </var>
    <var id="x19"> 0..3 11 15 </var>
    <var id="x20"> 0 3 11 15 </var>
    <var id="x21"> 0 2 3 11 </var>
    <var id="x22"> 1 2 11 </var>
    <var id="x23"> 0 13 14 17 </var>
    <var id="x24"> 8 11 12 14 17 </var>
    <var id="x25"> 11 12 14 15 17 </var>
    <var id="x26"> 0 11 12 14 15 17 </var>
    <var id="x27"> 0 13..15 </var>
    <var id="x28"> 8 11 12 14 15 17 </var>
    <var id="x29"> 8 11 15 </var>
    <var id="x30"> 8 11 13 14 17 </var>
    <var id="x31"> 2 5 16 </var>
    <var id="x32"> 8 11 12 </var>
    <var id="x33"> 2 11 12 </var>
    <var id="x34"> 0..2 8 </var>
    <var id="x35"> 0 2 5 </var>
    <var id="x36"> 0 1 16 </var>
    <var id="x37"> 8 11 12 </var>
    <var id="x38"> 1 2 8 16 </var>
    <var id="x39"> 3 4 10 14 </var>
    <var id="x40"> 4 12 14 </var>
    <var id="x41"> 4 7 10 14 </var>
    <var id="x42"> 0 7 15 </var>
    <var id="x43"> 0 3 12 14 15 </var>
    <var id="x44"> 0 4 7 15 </var>
    <var id="x45"> 3 10 12 14 15 </var>
    <var id="x46"> 7 10 15 </var>
    <var id="x47"> 5 9 14 16 </var>
    <var id="x48"> 9 11 14 17 </var>
    <var id="x49"> 5 7 9 14 17 </var>
    <var id="x50"> 1 11 </var>
    <var id="x51"> 5 11 14 16 17 </var>
    <var id="x52"> 1 7 16 </var>
    <var id="x53"> 11 14 17 </var>
    <var id="x54"> 1 7 16 </var>
    <var id="x55"> 9 12 17 </var>
    <var id="x56"> 4 14 17 </var>
    <var id="x57"> 4 11 12 14 15 17 </var>
    <var id="x58"> 9 14 15 </var>
    <var id="x59"> 9 11 15 </var>
    <var id="x60"> 11 14 17 </var>
    <var id="x61"> 15 </var>
    <var id="x62"> 5 9 14 </var>
    <var id="x63"> 5 6 9 17 </var>
    <var id="x64"> 5 13 14 17 </var>
    <var id="x65"> 13 15 </var>
    <var id="x66"> 8 14 15 17 </var>
    <var id="x67"> 5 6 17 </var>
    <var id="x68"> 6 8 13 14 17 </var>
    <var id="x69"> 6 8 15 </var>
    <var id="x70"> 0 7 17 </var>
    <var id="x71"> 0 5 7 13 17 </var>
    <var id="x72"> 2 5 7 10 17 </var>
    <var id="x73"> 0 2 13 </var>
    <var id="x74"> 0 2 5 7 13 </var>
    <var id="x75"> 5 8 10 17 </var>
    <var id="x76"> 2 7 8 </var>
    <var id="x77"> 2 8 13 17 </var>
    <var id="x78"> 4 9 12 17 </var>
    <var id="x79"> 2 4 12 17 </var>
    <var id="x80"> 2 7 9 </var>
    <var id="x81"> 2 3 12 </var>
    <var id="x82"> 3 12 17 </var>
    <var id="x83"> 2 5 7 9 </var>
    <var id="x84"> 5 17 </var>
    <var id="x85"> 4 7 </var>
    <var id="x86"> 1 7 9 12 </var>
    <var id="x87"> 2 7 9 14 </var>
    <var id="x88"> 0..2 11 12 </var>
    <var id="x89"> 0 11 12 14 </var>
    <var id="x90"> 11 14 </var>
    <var id="x91"> 0 1 7 </var>
    <var id="x92"> 2 7 9 11 </var>
    <var id="x93"> 1 2 7 </var>
    <var id="x94"> 0 1 </var>
    <var id="x95"> 0 16 </var>
    <var id="x96"> 2 10 </var>
    <var id="x97"> 0..2 6 </var>
    <var id="x98"> 0 2 </var>
    <var id="x99"> 0 2 3 6 </var>
    <var id="x100"> 2 3 16 </var>
    <var id="x101"> 7 17 </var>
    <var id="x102"> 2 7 14 17 </var>
    <var id="x103"> 2 14 15 17 </var>
    <var id="x104"> 2 3 15 </var>
    <var id="x105"> 2 7 14 15 </var>
    <var id="x106"> 8 14 16 17 </var>
    <var id="x107"> 2 3 17 </var>
    <var id="x108"> 2 3 7 8 15 16 </var>
    <var id="x109"> 1 11 14 17 </var>
    <var id="x110"> 4 10 14 </var>
    <var id="x111"> 1 10 17 </var>
    <var id="x112"> 4 8 11 14 17 </var>
    <var id="x113"> 11 14 15 17 </var>
    <var id="x114"> 11 17 </var>
    <var id="x115"> 8 11 15 </var>
    <var id="x116"> 1 8 10 15 </var>
    <var id="x117"> 2 3 10 14 16 </var>
    <var id="x118"> 1 6 10 </var>
    <var id="x119"> 1 2 6 15 </var>
    <var id="x120"> 3 14..16 </var>
    <var id="x121"> 1 6 15 16 </var>
    <var id="x122"> 3 10 14 15 </var>
    <var id="x123"> 2 3 6 </var>
    <var id="x124"> 1 2 6 14 </var>
    <var id="x125"> 9 14 17 </var>
    <var id="x126"> 6 9 10 17 </var>
    <var id="x127"> 13 14 17 </var>
    <var id="x128"> 2 10 14 17 </var>
    <var id="x129"> 2 6 8 9 </var>
    <var id="x130"> 14 17 </var>
    <var id="x131"> 6 13 </var>
    <var id="x132"> 2 6 8 13 14 17 </var>
    <var id="x133"> 2 4 5 16 </var>
    <var id="x134"> 4 5 7 16 </var>
    <var id="x135"> 2 4 5 7 </var>
    <var id="x136"> 2 6 7 15 </var>
    <var id="x137"> 11 15 </var>
    <var id="x138"> 2 5 6 11 </var>
    <var id="x139"> 2 7 11 15 16 </var>
    <var id="x140"> 2 6 7 15 16 </var>
  </variables>
  <constraints>
    <group>
      <allDifferent> %... </allDifferent>
      <args> x0 x1 x2 x3 x4 x5 x6 </args>
      <args> x7 x8 x9 x10 x11 x12 x13 x14 </args>
      <args> x15 x16 x17 x18 x19 x20 x21 x22 </args>
      <args> x23 x24 x25 x26 x27 x28 x29 x30 </args>
      <args> x31 x32 x33 x34 x35 x36 x37 x38 </args>
      <args> x39 x40 x41 x42 x43 x44 x45 x46 </args>
      <args> x47 x48 x49 x50 x51 x52 x53 x54 </args>
      <args> x55 x56 x57 x58 x59 x60 x61 </args>
      <args> x62 x63 x64 x65 x66 x67 x68 x69 </args>
      <args> x70 x71 x72 x73 x74 x75 x76 x77 </args>
      <args> x78 x79 x80 x81 x82 x83 x84 x85 </args>
      <args> x86 x87 x88 x89 x90 x91 x92 x93 </args>
      <args> x94 x95 x96 x97 x98 x99 x100 </args>
      <args> x101 x102 x103 x104 x105 x106 x107 x108 </args>
      <args> x109 x110 x111 x112 x113 x114 x115 x116 </args>
      <args> x117 x118 x119 x120 x121 x122 x123 x124 </args>
      <args> x125 x126 x127 x128 x129 x130 x131 x132 </args>
      <args> x133 x134 x135 x136 x137 x138 x139 x140 </args>
      <args> x0 x7 x15 x70 x94 x109 x125 </args>
      <args> x16 x31 x39 x47 x62 x110 x117 x133 </args>
      <args> x1 x55 x63 x86 x101 x111 x118 x126 </args>
      <args> x17 x23 x56 x64 x71 x95 x127 x134 </args>
      <args> x8 x24 x32 x40 x48 x78 x112 </args>
      <args> x9 x18 x41 x49 x72 x87 x102 x135 </args>
      <args> x2 x25 x33 x57 x79 x96 x103 x128 </args>
      <args> x3 x34 x42 x80 x97 x119 x129 x136 </args>
      <args> x4 x19 x50 x65 x73 x81 x88 x104 </args>
      <args> x20 x26 x43 x82 x89 x113 x120 x130 </args>
      <args> x10 x27 x35 x58 x74 x83 x98 x105 </args>
      <args> x5 x11 x51 x75 x84 x90 x106 </args>
      <args> x6 x36 x44 x52 x85 x91 x121 x131 </args>
      <args> x12 x28 x37 x45 x53 x66 x122 x137 </args>
      <args> x13 x21 x67 x99 x107 x114 x123 x138 </args>
      <args> x29 x59 x76 x92 x100 x108 x115 x139 </args>
      <args> x14 x22 x30 x60 x68 x77 x124 x132 </args>
      <args> x38 x46 x54 x61 x69 x93 x116 x140 </args>
    </group>
  </constraints>
</instance>

